% Auto-generated by scripts/generate_dzn.py
% problem_type   = polyominoes
% instance       = polyominoes_22
% source_json    = instances_json/0_low_blowup/polyominoes_22.json
% blowup         = 0.8888888888888888
% representation = NFA

mode = 1;

size = 4;
tiles = 8;
n_expressions = 8;
Q = 18;
S = 9;
q0 = [1, 1, 1, 1, 1, 1, 1, 1];
F = [{2}, {5}, {2}, {5}, {9}, {8}, {2}, {8}];
d_dfa = array3d(1..8, 1..18, 1..9, [
  % k = 1
    0, 0, 0, 0, 0, 0, 0, 0, 0,
    0, 0, 0, 0, 0, 0, 0, 0, 0,
    0, 0, 0, 0, 0, 0, 0, 0, 0,
    0, 0, 0, 0, 0, 0, 0, 0, 0,
    0, 0, 0, 0, 0, 0, 0, 0, 0,
    0, 0, 0, 0, 0, 0, 0, 0, 0,
    0, 0, 0, 0, 0, 0, 0, 0, 0,
    0, 0, 0, 0, 0, 0, 0, 0, 0,
    0, 0, 0, 0, 0, 0, 0, 0, 0,
    0, 0, 0, 0, 0, 0, 0, 0, 0,
    0, 0, 0, 0, 0, 0, 0, 0, 0,
    0, 0, 0, 0, 0, 0, 0, 0, 0,
    0, 0, 0, 0, 0, 0, 0, 0, 0,
    0, 0, 0, 0, 0, 0, 0, 0, 0,
    0, 0, 0, 0, 0, 0, 0, 0, 0,
    0, 0, 0, 0, 0, 0, 0, 0, 0,
    0, 0, 0, 0, 0, 0, 0, 0, 0,
    0, 0, 0, 0, 0, 0, 0, 0, 0,

  % k = 2
    0, 0, 0, 0, 0, 0, 0, 0, 0,
    0, 0, 0, 0, 0, 0, 0, 0, 0,
    0, 0, 0, 0, 0, 0, 0, 0, 0,
    0, 0, 0, 0, 0, 0, 0, 0, 0,
    0, 0, 0, 0, 0, 0, 0, 0, 0,
    0, 0, 0, 0, 0, 0, 0, 0, 0,
    0, 0, 0, 0, 0, 0, 0, 0, 0,
    0, 0, 0, 0, 0, 0, 0, 0, 0,
    0, 0, 0, 0, 0, 0, 0, 0, 0,
    0, 0, 0, 0, 0, 0, 0, 0, 0,
    0, 0, 0, 0, 0, 0, 0, 0, 0,
    0, 0, 0, 0, 0, 0, 0, 0, 0,
    0, 0, 0, 0, 0, 0, 0, 0, 0,
    0, 0, 0, 0, 0, 0, 0, 0, 0,
    0, 0, 0, 0, 0, 0, 0, 0, 0,
    0, 0, 0, 0, 0, 0, 0, 0, 0,
    0, 0, 0, 0, 0, 0, 0, 0, 0,
    0, 0, 0, 0, 0, 0, 0, 0, 0,

  % k = 3
    0, 0, 0, 0, 0, 0, 0, 0, 0,
    0, 0, 0, 0, 0, 0, 0, 0, 0,
    0, 0, 0, 0, 0, 0, 0, 0, 0,
    0, 0, 0, 0, 0, 0, 0, 0, 0,
    0, 0, 0, 0, 0, 0, 0, 0, 0,
    0, 0, 0, 0, 0, 0, 0, 0, 0,
    0, 0, 0, 0, 0, 0, 0, 0, 0,
    0, 0, 0, 0, 0, 0, 0, 0, 0,
    0, 0, 0, 0, 0, 0, 0, 0, 0,
    0, 0, 0, 0, 0, 0, 0, 0, 0,
    0, 0, 0, 0, 0, 0, 0, 0, 0,
    0, 0, 0, 0, 0, 0, 0, 0, 0,
    0, 0, 0, 0, 0, 0, 0, 0, 0,
    0, 0, 0, 0, 0, 0, 0, 0, 0,
    0, 0, 0, 0, 0, 0, 0, 0, 0,
    0, 0, 0, 0, 0, 0, 0, 0, 0,
    0, 0, 0, 0, 0, 0, 0, 0, 0,
    0, 0, 0, 0, 0, 0, 0, 0, 0,

  % k = 4
    0, 0, 0, 0, 0, 0, 0, 0, 0,
    0, 0, 0, 0, 0, 0, 0, 0, 0,
    0, 0, 0, 0, 0, 0, 0, 0, 0,
    0, 0, 0, 0, 0, 0, 0, 0, 0,
    0, 0, 0, 0, 0, 0, 0, 0, 0,
    0, 0, 0, 0, 0, 0, 0, 0, 0,
    0, 0, 0, 0, 0, 0, 0, 0, 0,
    0, 0, 0, 0, 0, 0, 0, 0, 0,
    0, 0, 0, 0, 0, 0, 0, 0, 0,
    0, 0, 0, 0, 0, 0, 0, 0, 0,
    0, 0, 0, 0, 0, 0, 0, 0, 0,
    0, 0, 0, 0, 0, 0, 0, 0, 0,
    0, 0, 0, 0, 0, 0, 0, 0, 0,
    0, 0, 0, 0, 0, 0, 0, 0, 0,
    0, 0, 0, 0, 0, 0, 0, 0, 0,
    0, 0, 0, 0, 0, 0, 0, 0, 0,
    0, 0, 0, 0, 0, 0, 0, 0, 0,
    0, 0, 0, 0, 0, 0, 0, 0, 0,

  % k = 5
    0, 0, 0, 0, 0, 0, 0, 0, 0,
    0, 0, 0, 0, 0, 0, 0, 0, 0,
    0, 0, 0, 0, 0, 0, 0, 0, 0,
    0, 0, 0, 0, 0, 0, 0, 0, 0,
    0, 0, 0, 0, 0, 0, 0, 0, 0,
    0, 0, 0, 0, 0, 0, 0, 0, 0,
    0, 0, 0, 0, 0, 0, 0, 0, 0,
    0, 0, 0, 0, 0, 0, 0, 0, 0,
    0, 0, 0, 0, 0, 0, 0, 0, 0,
    0, 0, 0, 0, 0, 0, 0, 0, 0,
    0, 0, 0, 0, 0, 0, 0, 0, 0,
    0, 0, 0, 0, 0, 0, 0, 0, 0,
    0, 0, 0, 0, 0, 0, 0, 0, 0,
    0, 0, 0, 0, 0, 0, 0, 0, 0,
    0, 0, 0, 0, 0, 0, 0, 0, 0,
    0, 0, 0, 0, 0, 0, 0, 0, 0,
    0, 0, 0, 0, 0, 0, 0, 0, 0,
    0, 0, 0, 0, 0, 0, 0, 0, 0,

  % k = 6
    0, 0, 0, 0, 0, 0, 0, 0, 0,
    0, 0, 0, 0, 0, 0, 0, 0, 0,
    0, 0, 0, 0, 0, 0, 0, 0, 0,
    0, 0, 0, 0, 0, 0, 0, 0, 0,
    0, 0, 0, 0, 0, 0, 0, 0, 0,
    0, 0, 0, 0, 0, 0, 0, 0, 0,
    0, 0, 0, 0, 0, 0, 0, 0, 0,
    0, 0, 0, 0, 0, 0, 0, 0, 0,
    0, 0, 0, 0, 0, 0, 0, 0, 0,
    0, 0, 0, 0, 0, 0, 0, 0, 0,
    0, 0, 0, 0, 0, 0, 0, 0, 0,
    0, 0, 0, 0, 0, 0, 0, 0, 0,
    0, 0, 0, 0, 0, 0, 0, 0, 0,
    0, 0, 0, 0, 0, 0, 0, 0, 0,
    0, 0, 0, 0, 0, 0, 0, 0, 0,
    0, 0, 0, 0, 0, 0, 0, 0, 0,
    0, 0, 0, 0, 0, 0, 0, 0, 0,
    0, 0, 0, 0, 0, 0, 0, 0, 0,

  % k = 7
    0, 0, 0, 0, 0, 0, 0, 0, 0,
    0, 0, 0, 0, 0, 0, 0, 0, 0,
    0, 0, 0, 0, 0, 0, 0, 0, 0,
    0, 0, 0, 0, 0, 0, 0, 0, 0,
    0, 0, 0, 0, 0, 0, 0, 0, 0,
    0, 0, 0, 0, 0, 0, 0, 0, 0,
    0, 0, 0, 0, 0, 0, 0, 0, 0,
    0, 0, 0, 0, 0, 0, 0, 0, 0,
    0, 0, 0, 0, 0, 0, 0, 0, 0,
    0, 0, 0, 0, 0, 0, 0, 0, 0,
    0, 0, 0, 0, 0, 0, 0, 0, 0,
    0, 0, 0, 0, 0, 0, 0, 0, 0,
    0, 0, 0, 0, 0, 0, 0, 0, 0,
    0, 0, 0, 0, 0, 0, 0, 0, 0,
    0, 0, 0, 0, 0, 0, 0, 0, 0,
    0, 0, 0, 0, 0, 0, 0, 0, 0,
    0, 0, 0, 0, 0, 0, 0, 0, 0,
    0, 0, 0, 0, 0, 0, 0, 0, 0,

  % k = 8
    0, 0, 0, 0, 0, 0, 0, 0, 0,
    0, 0, 0, 0, 0, 0, 0, 0, 0,
    0, 0, 0, 0, 0, 0, 0, 0, 0,
    0, 0, 0, 0, 0, 0, 0, 0, 0,
    0, 0, 0, 0, 0, 0, 0, 0, 0,
    0, 0, 0, 0, 0, 0, 0, 0, 0,
    0, 0, 0, 0, 0, 0, 0, 0, 0,
    0, 0, 0, 0, 0, 0, 0, 0, 0,
    0, 0, 0, 0, 0, 0, 0, 0, 0,
    0, 0, 0, 0, 0, 0, 0, 0, 0,
    0, 0, 0, 0, 0, 0, 0, 0, 0,
    0, 0, 0, 0, 0, 0, 0, 0, 0,
    0, 0, 0, 0, 0, 0, 0, 0, 0,
    0, 0, 0, 0, 0, 0, 0, 0, 0,
    0, 0, 0, 0, 0, 0, 0, 0, 0,
    0, 0, 0, 0, 0, 0, 0, 0, 0,
    0, 0, 0, 0, 0, 0, 0, 0, 0,
    0, 0, 0, 0, 0, 0, 0, 0, 0
]);
d_nfa = array3d(1..8, 1..18, 1..9, [
  % k = 1
    {2}, {1}, {1}, {1}, {1}, {1}, {1}, {1}, {1},
    {}, {2}, {2}, {2}, {2}, {2}, {2}, {2}, {2},
    {}, {}, {}, {}, {}, {}, {}, {}, {},
    {}, {}, {}, {}, {}, {}, {}, {}, {},
    {}, {}, {}, {}, {}, {}, {}, {}, {},
    {}, {}, {}, {}, {}, {}, {}, {}, {},
    {}, {}, {}, {}, {}, {}, {}, {}, {},
    {}, {}, {}, {}, {}, {}, {}, {}, {},
    {}, {}, {}, {}, {}, {}, {}, {}, {},
    {}, {}, {}, {}, {}, {}, {}, {}, {},
    {}, {}, {}, {}, {}, {}, {}, {}, {},
    {}, {}, {}, {}, {}, {}, {}, {}, {},
    {}, {}, {}, {}, {}, {}, {}, {}, {},
    {}, {}, {}, {}, {}, {}, {}, {}, {},
    {}, {}, {}, {}, {}, {}, {}, {}, {},
    {}, {}, {}, {}, {}, {}, {}, {}, {},
    {}, {}, {}, {}, {}, {}, {}, {}, {},
    {}, {}, {}, {}, {}, {}, {}, {}, {},

  % k = 2
    {2, 6}, {3, 7}, {2, 6}, {2, 6}, {2, 6}, {2, 6}, {2, 6}, {2, 6}, {2, 6},
    {2}, {3}, {2}, {2}, {2}, {2}, {2}, {2}, {2},
    {}, {4}, {}, {}, {}, {}, {}, {}, {},
    {}, {5}, {}, {}, {}, {}, {}, {}, {},
    {5}, {}, {5}, {5}, {5}, {5}, {5}, {5}, {5},
    {6}, {7}, {6}, {6}, {6}, {6}, {6}, {6}, {6},
    {8}, {}, {8}, {8}, {8}, {8}, {8}, {8}, {8},
    {9}, {}, {9}, {9}, {9}, {9}, {9}, {9}, {9},
    {10}, {}, {10}, {10}, {10}, {10}, {10}, {10}, {10},
    {11}, {}, {11}, {11}, {11}, {11}, {11}, {11}, {11},
    {}, {12}, {}, {}, {}, {}, {}, {}, {},
    {13}, {}, {13}, {13}, {13}, {13}, {13}, {13}, {13},
    {14}, {}, {14}, {14}, {14}, {14}, {14}, {14}, {14},
    {15}, {}, {15}, {15}, {15}, {15}, {15}, {15}, {15},
    {4}, {}, {4}, {4}, {4}, {4}, {4}, {4}, {4},
    {}, {}, {}, {}, {}, {}, {}, {}, {},
    {}, {}, {}, {}, {}, {}, {}, {}, {},
    {}, {}, {}, {}, {}, {}, {}, {}, {},

  % k = 3
    {1}, {1}, {2}, {1}, {1}, {1}, {1}, {1}, {1},
    {2}, {2}, {}, {2}, {2}, {2}, {2}, {2}, {2},
    {}, {}, {}, {}, {}, {}, {}, {}, {},
    {}, {}, {}, {}, {}, {}, {}, {}, {},
    {}, {}, {}, {}, {}, {}, {}, {}, {},
    {}, {}, {}, {}, {}, {}, {}, {}, {},
    {}, {}, {}, {}, {}, {}, {}, {}, {},
    {}, {}, {}, {}, {}, {}, {}, {}, {},
    {}, {}, {}, {}, {}, {}, {}, {}, {},
    {}, {}, {}, {}, {}, {}, {}, {}, {},
    {}, {}, {}, {}, {}, {}, {}, {}, {},
    {}, {}, {}, {}, {}, {}, {}, {}, {},
    {}, {}, {}, {}, {}, {}, {}, {}, {},
    {}, {}, {}, {}, {}, {}, {}, {}, {},
    {}, {}, {}, {}, {}, {}, {}, {}, {},
    {}, {}, {}, {}, {}, {}, {}, {}, {},
    {}, {}, {}, {}, {}, {}, {}, {}, {},
    {}, {}, {}, {}, {}, {}, {}, {}, {},

  % k = 4
    {2, 6}, {2, 6}, {2, 6}, {3, 7}, {2, 6}, {2, 6}, {2, 6}, {2, 6}, {2, 6},
    {2}, {2}, {2}, {3}, {2}, {2}, {2}, {2}, {2},
    {}, {}, {}, {4}, {}, {}, {}, {}, {},
    {}, {}, {}, {5}, {}, {}, {}, {}, {},
    {5}, {5}, {5}, {}, {5}, {5}, {5}, {5}, {5},
    {6}, {6}, {6}, {7}, {6}, {6}, {6}, {6}, {6},
    {8}, {8}, {8}, {}, {8}, {8}, {8}, {8}, {8},
    {9}, {9}, {9}, {}, {9}, {9}, {9}, {9}, {9},
    {10}, {10}, {10}, {}, {10}, {10}, {10}, {10}, {10},
    {11}, {11}, {11}, {}, {11}, {11}, {11}, {11}, {11},
    {}, {}, {}, {12}, {}, {}, {}, {}, {},
    {13}, {13}, {13}, {}, {13}, {13}, {13}, {13}, {13},
    {14}, {14}, {14}, {}, {14}, {14}, {14}, {14}, {14},
    {15}, {15}, {15}, {}, {15}, {15}, {15}, {15}, {15},
    {4}, {4}, {4}, {}, {4}, {4}, {4}, {4}, {4},
    {}, {}, {}, {}, {}, {}, {}, {}, {},
    {}, {}, {}, {}, {}, {}, {}, {}, {},
    {}, {}, {}, {}, {}, {}, {}, {}, {},

  % k = 5
    {2, 10, 15, 18}, {2, 10, 15, 18}, {2, 10, 15, 18}, {2, 10, 15, 18}, {3, 4, 11, 16}, {2, 10, 15, 18}, {2, 10, 15, 18}, {2, 10, 15, 18}, {2, 10, 15, 18},
    {2}, {2}, {2}, {2}, {3}, {2}, {2}, {2}, {2},
    {4}, {4}, {4}, {4}, {}, {4}, {4}, {4}, {4},
    {5}, {5}, {5}, {5}, {}, {5}, {5}, {5}, {5},
    {6}, {6}, {6}, {6}, {}, {6}, {6}, {6}, {6},
    {7}, {7}, {7}, {7}, {}, {7}, {7}, {7}, {7},
    {}, {}, {}, {}, {8}, {}, {}, {}, {},
    {}, {}, {}, {}, {9}, {}, {}, {}, {},
    {9}, {9}, {9}, {9}, {}, {9}, {9}, {9}, {9},
    {10}, {10}, {10}, {10}, {11}, {10}, {10}, {10}, {10},
    {}, {}, {}, {}, {12}, {}, {}, {}, {},
    {13}, {13}, {13}, {13}, {}, {13}, {13}, {13}, {13},
    {14}, {14}, {14}, {14}, {}, {14}, {14}, {14}, {14},
    {8}, {8}, {8}, {8}, {}, {8}, {8}, {8}, {8},
    {15}, {15}, {15}, {15}, {16}, {15}, {15}, {15}, {15},
    {}, {}, {}, {}, {17}, {}, {}, {}, {},
    {12}, {12}, {12}, {12}, {}, {12}, {12}, {12}, {12},
    {18}, {18}, {18}, {18}, {4}, {18}, {18}, {18}, {18},

  % k = 6
    {2, 9}, {2, 9}, {2, 9}, {2, 9}, {2, 9}, {3, 7}, {2, 9}, {2, 9}, {2, 9},
    {2}, {2}, {2}, {2}, {2}, {3}, {2}, {2}, {2},
    {4}, {4}, {4}, {4}, {4}, {}, {4}, {4}, {4},
    {5}, {5}, {5}, {5}, {5}, {}, {5}, {5}, {5},
    {6}, {6}, {6}, {6}, {6}, {}, {6}, {6}, {6},
    {7}, {7}, {7}, {7}, {7}, {}, {7}, {7}, {7},
    {}, {}, {}, {}, {}, {8}, {}, {}, {},
    {8}, {8}, {8}, {8}, {8}, {}, {8}, {8}, {8},
    {9}, {9}, {9}, {9}, {9}, {7}, {9}, {9}, {9},
    {}, {}, {}, {}, {}, {}, {}, {}, {},
    {}, {}, {}, {}, {}, {}, {}, {}, {},
    {}, {}, {}, {}, {}, {}, {}, {}, {},
    {}, {}, {}, {}, {}, {}, {}, {}, {},
    {}, {}, {}, {}, {}, {}, {}, {}, {},
    {}, {}, {}, {}, {}, {}, {}, {}, {},
    {}, {}, {}, {}, {}, {}, {}, {}, {},
    {}, {}, {}, {}, {}, {}, {}, {}, {},
    {}, {}, {}, {}, {}, {}, {}, {}, {},

  % k = 7
    {1}, {1}, {1}, {1}, {1}, {1}, {2}, {1}, {1},
    {2}, {2}, {2}, {2}, {2}, {2}, {}, {2}, {2},
    {}, {}, {}, {}, {}, {}, {}, {}, {},
    {}, {}, {}, {}, {}, {}, {}, {}, {},
    {}, {}, {}, {}, {}, {}, {}, {}, {},
    {}, {}, {}, {}, {}, {}, {}, {}, {},
    {}, {}, {}, {}, {}, {}, {}, {}, {},
    {}, {}, {}, {}, {}, {}, {}, {}, {},
    {}, {}, {}, {}, {}, {}, {}, {}, {},
    {}, {}, {}, {}, {}, {}, {}, {}, {},
    {}, {}, {}, {}, {}, {}, {}, {}, {},
    {}, {}, {}, {}, {}, {}, {}, {}, {},
    {}, {}, {}, {}, {}, {}, {}, {}, {},
    {}, {}, {}, {}, {}, {}, {}, {}, {},
    {}, {}, {}, {}, {}, {}, {}, {}, {},
    {}, {}, {}, {}, {}, {}, {}, {}, {},
    {}, {}, {}, {}, {}, {}, {}, {}, {},
    {}, {}, {}, {}, {}, {}, {}, {}, {},

  % k = 8
    {2, 9}, {2, 9}, {2, 9}, {2, 9}, {2, 9}, {2, 9}, {2, 9}, {3, 7}, {2, 9},
    {2}, {2}, {2}, {2}, {2}, {2}, {2}, {3}, {2},
    {4}, {4}, {4}, {4}, {4}, {4}, {4}, {}, {4},
    {5}, {5}, {5}, {5}, {5}, {5}, {5}, {}, {5},
    {6}, {6}, {6}, {6}, {6}, {6}, {6}, {}, {6},
    {7}, {7}, {7}, {7}, {7}, {7}, {7}, {}, {7},
    {}, {}, {}, {}, {}, {}, {}, {8}, {},
    {8}, {8}, {8}, {8}, {8}, {8}, {8}, {}, {8},
    {9}, {9}, {9}, {9}, {9}, {9}, {9}, {7}, {9},
    {}, {}, {}, {}, {}, {}, {}, {}, {},
    {}, {}, {}, {}, {}, {}, {}, {}, {},
    {}, {}, {}, {}, {}, {}, {}, {}, {},
    {}, {}, {}, {}, {}, {}, {}, {}, {},
    {}, {}, {}, {}, {}, {}, {}, {}, {},
    {}, {}, {}, {}, {}, {}, {}, {}, {},
    {}, {}, {}, {}, {}, {}, {}, {}, {},
    {}, {}, {}, {}, {}, {}, {}, {}, {},
    {}, {}, {}, {}, {}, {}, {}, {}, {}
]);
